\ SCIP STATISTICS
\   Problem name     : SetCover-100-150
\   Variables        : 150 (150 binary, 0 integer, 0 implicit integer, 0 continuous)
\   Constraints      : 100
Minimize
 Obj: +31 x0 +46 x1 +42 x2 +4 x3 +98 x4 +94 x5 +37 x6 +56 x7 +53 x8 +19 x9 +67 x10 +90 x11 +99 x12 +28 x13
      +22 x14 +44 x15 +23 x16 +59 x17 +53 x18 +48 x19 +32 x20 +65 x21 +93 x22 +39 x23 +75 x24 +60 x25
      +42 x26 +59 x27 +97 x28 +50 x29 +8 x30 +86 x31 +18 x32 +45 x33 +34 x34 +12 x35 +93 x36 +41 x37 +54 x38
      +55 x39 +98 x40 +78 x41 +87 x42 +93 x43 +26 x44 +60 x45 +53 x46 +96 x47 +8 x48 +10 x49 +68 x50 +66 x51
      +60 x52 +24 x53 +65 x54 +99 x55 +37 x56 +32 x57 +22 x58 +98 x59 +50 x60 +53 x61 +76 x62 +76 x63
      +76 x64 +28 x65 +74 x66 +38 x67 +78 x68 +36 x69 +12 x70 +75 x71 +85 x72 +99 x73 +52 x74 +65 x75
      +96 x76 +25 x77 +37 x78 +34 x79 +33 x80 +84 x81 +61 x82 +90 x83 +64 x84 +36 x85 +64 x86 +43 x87
      +85 x88 +6 x89 +59 x90 +70 x91 +56 x92 +76 x93 +84 x94 +98 x95 +55 x96 +7 x97 +2 x98 +98 x99 +66 x100
      +40 x101 +9 x102 +64 x103 +76 x104 +88 x105 +23 x106 +12 x107 +47 x108 +53 x109 +11 x110 +50 x111
      +75 x112 +100 x113 +86 x114 +18 x115 +63 x116 +79 x117 +28 x118 +17 x119 +98 x120 +23 x121 +98 x122
      +64 x123 +60 x124 +28 x125 +15 x126 +23 x127 +78 x128 +57 x129 +2 x130 +16 x131 +72 x132 +80 x133
      +34 x134 +38 x135 +88 x136 +36 x137 +35 x138 +18 x139 +42 x140 +23 x141 +59 x142 +44 x143 +27 x144
      +4 x145 +66 x146 +11 x147 +24 x148 +91 x149
Subject to
 c0: +1 x6 +1 x14 +1 x23 +1 x37 +1 x42 +1 x45 +1 x53 +1 x70 +1 x76 +1 x108 +1 x132 +1 x137 +1 x141 +1 x143
  >= +1
 c1: +1 x5 +1 x41 +1 x54 +1 x62 +1 x68 +1 x77 +1 x97 +1 x99 +1 x103 +1 x110 +1 x114 +1 x116 +1 x119 +1 x127
  +1 x137 +1 x149 >= +1
 c2: +1 x0 +1 x10 +1 x12 +1 x19 +1 x20 +1 x29 +1 x30 +1 x38 +1 x45 +1 x47 +1 x49 +1 x57 +1 x74 +1 x79
  +1 x91 +1 x103 +1 x108 >= +1
 c3: +1 x7 +1 x23 +1 x40 +1 x57 +1 x61 +1 x84 +1 x100 +1 x101 +1 x103 +1 x106 +1 x111 +1 x131 +1 x132
  >= +1
 c4: +1 x0 +1 x30 +1 x34 +1 x37 +1 x41 +1 x47 +1 x54 +1 x55 +1 x62 +1 x64 +1 x81 +1 x89 +1 x91 +1 x101
  +1 x105 +1 x118 +1 x119 +1 x133 +1 x142 >= +1
 c5: +1 x8 +1 x10 +1 x16 +1 x26 +1 x57 +1 x67 +1 x70 +1 x71 +1 x80 +1 x111 +1 x117 +1 x120 +1 x131 +1 x138
  >= +1
 c6: +1 x6 +1 x17 +1 x23 +1 x36 +1 x37 +1 x40 +1 x43 +1 x51 +1 x73 +1 x90 +1 x91 +1 x97 +1 x123 +1 x127
  +1 x133 +1 x136 +1 x140 +1 x147 >= +1
 c7: +1 x0 +1 x14 +1 x16 +1 x29 +1 x45 +1 x48 +1 x52 +1 x54 +1 x59 +1 x65 +1 x66 +1 x74 +1 x94 +1 x98
  +1 x118 +1 x123 +1 x124 +1 x132 +1 x136 +1 x140 +1 x141 >= +1
 c8: +1 x9 +1 x27 +1 x37 +1 x48 +1 x49 +1 x74 +1 x101 +1 x108 +1 x111 +1 x118 +1 x139 >= +1
 c9: +1 x2 +1 x12 +1 x14 +1 x18 +1 x30 +1 x43 +1 x44 +1 x55 +1 x60 +1 x61 +1 x83 +1 x98 +1 x105 +1 x115
  +1 x123 +1 x148 >= +1
 c10: +1 x4 +1 x10 +1 x17 +1 x26 +1 x34 +1 x38 +1 x44 +1 x46 +1 x53 +1 x64 +1 x80 +1 x91 +1 x118 +1 x133
  >= +1
 c11: +1 x2 +1 x16 +1 x23 +1 x30 +1 x34 +1 x52 +1 x55 +1 x59 +1 x66 +1 x68 +1 x79 +1 x92 +1 x98 +1 x111
  +1 x121 +1 x142 >= +1
 c12: +1 x9 +1 x10 +1 x12 +1 x15 +1 x16 +1 x20 +1 x24 +1 x36 +1 x42 +1 x45 +1 x48 +1 x52 +1 x61 +1 x67
  +1 x73 +1 x75 +1 x94 +1 x101 +1 x109 +1 x113 +1 x125 >= +1
 c13: +1 x5 +1 x13 +1 x22 +1 x23 +1 x32 +1 x33 +1 x34 +1 x57 +1 x64 +1 x68 +1 x77 +1 x78 +1 x79 +1 x83
  +1 x92 +1 x108 +1 x112 +1 x123 +1 x138 >= +1
 c14: +1 x3 +1 x22 +1 x33 +1 x82 +1 x86 +1 x118 +1 x123 +1 x126 +1 x129 +1 x143 +1 x145 >= +1
 c15: +1 x1 +1 x10 +1 x18 +1 x30 +1 x32 +1 x33 +1 x37 +1 x44 +1 x46 +1 x48 +1 x54 +1 x73 +1 x97 +1 x105
  >= +1
 c16: +1 x8 +1 x12 +1 x22 +1 x62 +1 x66 +1 x69 +1 x70 +1 x72 +1 x78 +1 x82 +1 x95 +1 x123 +1 x128 +1 x142
  +1 x143 >= +1
 c17: +1 x9 +1 x40 +1 x41 +1 x63 +1 x99 +1 x101 +1 x122 +1 x123 +1 x129 +1 x143 >= +1
 c18: +1 x2 +1 x23 +1 x32 +1 x35 +1 x52 +1 x53 +1 x70 +1 x83 +1 x143 +1 x144 >= +1
 c19: +1 x1 +1 x18 +1 x20 +1 x28 +1 x78 +1 x82 +1 x107 +1 x116 +1 x117 +1 x126 +1 x131 +1 x138 >= +1
 c20: +1 x1 +1 x16 +1 x22 +1 x23 +1 x25 +1 x32 +1 x56 +1 x76 +1 x97 +1 x108 +1 x110 +1 x128 +1 x130 +1 x133
  >= +1
 c21: +1 x2 +1 x16 +1 x17 +1 x18 +1 x21 +1 x22 +1 x37 +1 x40 +1 x50 +1 x55 +1 x60 +1 x67 +1 x77 +1 x79
  +1 x81 +1 x101 +1 x109 +1 x125 +1 x132 +1 x133 +1 x140 >= +1
 c22: +1 x9 +1 x12 +1 x21 +1 x22 +1 x59 +1 x63 +1 x66 +1 x72 +1 x80 +1 x83 +1 x113 +1 x115 +1 x116 +1 x118
  +1 x121 +1 x136 +1 x147 >= +1
 c23: +1 x8 +1 x18 +1 x24 +1 x25 +1 x47 +1 x53 +1 x64 +1 x72 +1 x74 +1 x77 +1 x78 +1 x96 +1 x111 +1 x115
  +1 x120 +1 x128 +1 x135 +1 x141 >= +1
 c24: +1 x5 +1 x13 +1 x22 +1 x31 +1 x41 +1 x58 +1 x73 +1 x74 +1 x89 +1 x105 +1 x111 +1 x112 +1 x120 +1 x129
  +1 x133 +1 x137 +1 x140 >= +1
 c25: +1 x4 +1 x15 +1 x16 +1 x17 +1 x34 +1 x43 +1 x44 +1 x60 +1 x65 +1 x74 +1 x77 +1 x78 +1 x104 +1 x108
  +1 x137 +1 x140 +1 x147 >= +1
 c26: +1 x8 +1 x13 +1 x15 +1 x50 +1 x59 +1 x60 +1 x82 +1 x88 +1 x102 +1 x147 +1 x149 >= +1
 c27: +1 x3 +1 x14 +1 x15 +1 x41 +1 x50 +1 x72 +1 x98 +1 x107 +1 x108 +1 x112 +1 x117 +1 x125 +1 x149
  >= +1
 c28: +1 x7 +1 x12 +1 x24 +1 x34 +1 x40 +1 x42 +1 x44 +1 x55 +1 x73 +1 x77 +1 x88 +1 x91 +1 x121 +1 x125
  >= +1
 c29: +1 x7 +1 x29 +1 x31 +1 x39 +1 x49 +1 x71 +1 x72 +1 x92 +1 x96 +1 x121 +1 x138 +1 x139 >= +1
 c30: +1 x0 +1 x24 +1 x61 +1 x69 +1 x76 +1 x78 +1 x90 +1 x97 +1 x102 +1 x114 +1 x118 +1 x120 +1 x136 +1 x146
  +1 x148 >= +1
 c31: +1 x4 +1 x33 +1 x57 +1 x70 +1 x112 +1 x123 +1 x124 +1 x130 +1 x137 +1 x140 +1 x142 >= +1
 c32: +1 x7 +1 x16 +1 x34 +1 x46 +1 x49 +1 x54 +1 x66 +1 x90 +1 x91 +1 x109 +1 x124 +1 x131 +1 x133 +1 x146
  >= +1
 c33: +1 x1 +1 x13 +1 x18 +1 x24 +1 x40 +1 x58 +1 x74 +1 x89 +1 x104 +1 x112 +1 x118 +1 x137 +1 x145 +1 x148
  >= +1
 c34: +1 x2 +1 x12 +1 x21 +1 x26 +1 x28 +1 x42 +1 x55 +1 x75 +1 x85 +1 x97 +1 x98 +1 x107 +1 x119 +1 x122
  +1 x131 +1 x143 >= +1
 c35: +1 x4 +1 x10 +1 x37 +1 x45 +1 x55 +1 x84 +1 x89 +1 x100 +1 x102 +1 x133 +1 x149 >= +1
 c36: +1 x4 +1 x11 +1 x30 +1 x31 +1 x49 +1 x69 +1 x79 +1 x96 +1 x103 +1 x108 +1 x118 +1 x121 +1 x128 >= +1
 c37: +1 x6 +1 x10 +1 x20 +1 x24 +1 x39 +1 x51 +1 x60 +1 x62 +1 x68 +1 x79 +1 x84 +1 x97 +1 x99 +1 x109
  +1 x115 +1 x128 +1 x132 +1 x139 +1 x141 +1 x145 >= +1
 c38: +1 x1 +1 x24 +1 x28 +1 x35 +1 x50 +1 x56 +1 x71 +1 x72 +1 x82 +1 x89 +1 x94 +1 x99 +1 x103 +1 x115
  +1 x122 +1 x123 +1 x124 +1 x148 >= +1
 c39: +1 x2 +1 x13 +1 x18 +1 x20 +1 x25 +1 x30 +1 x38 +1 x70 +1 x80 +1 x95 +1 x105 +1 x107 +1 x111 +1 x112
  +1 x116 +1 x132 +1 x145 +1 x149 >= +1
 c40: +1 x6 +1 x14 +1 x30 +1 x32 +1 x78 +1 x82 +1 x88 +1 x123 +1 x127 +1 x130 +1 x140 +1 x143 >= +1
 c41: +1 x6 +1 x13 +1 x18 +1 x24 +1 x36 +1 x38 +1 x46 +1 x48 +1 x56 +1 x58 +1 x64 +1 x65 +1 x77 +1 x81
  +1 x94 +1 x127 +1 x129 +1 x131 +1 x133 +1 x134 >= +1
 c42: +1 x2 +1 x14 +1 x19 +1 x22 +1 x41 +1 x48 +1 x58 +1 x67 +1 x70 +1 x81 +1 x84 +1 x99 +1 x102 +1 x105
  +1 x127 +1 x133 +1 x139 +1 x147 >= +1
 c43: +1 x6 +1 x15 +1 x16 +1 x34 +1 x44 +1 x46 +1 x55 +1 x57 +1 x59 +1 x60 +1 x64 +1 x70 +1 x76 +1 x79
  +1 x82 +1 x85 +1 x92 +1 x133 +1 x135 +1 x145 >= +1
 c44: +1 x4 +1 x15 +1 x21 +1 x33 +1 x51 +1 x61 +1 x66 +1 x71 +1 x76 +1 x78 +1 x88 +1 x93 +1 x101 +1 x107
  +1 x108 +1 x140 >= +1
 c45: +1 x3 +1 x14 +1 x17 +1 x19 +1 x21 +1 x24 +1 x31 +1 x36 +1 x48 +1 x66 +1 x68 +1 x79 +1 x83 +1 x96
  +1 x99 +1 x100 +1 x102 +1 x111 +1 x128 >= +1
 c46: +1 x8 +1 x9 +1 x13 +1 x22 +1 x36 +1 x41 +1 x46 +1 x58 +1 x80 +1 x83 +1 x96 +1 x103 +1 x112 +1 x118
  +1 x123 +1 x133 +1 x149 >= +1
 c47: +1 x2 +1 x11 +1 x13 +1 x18 +1 x27 +1 x62 +1 x71 +1 x81 +1 x83 +1 x99 +1 x114 +1 x122 +1 x126 +1 x134
  +1 x139 +1 x141 +1 x143 +1 x144 >= +1
 c48: +1 x1 +1 x15 +1 x19 +1 x25 +1 x37 +1 x39 +1 x48 +1 x54 +1 x65 +1 x66 +1 x67 +1 x78 +1 x96 +1 x100
  +1 x133 >= +1
 c49: +1 x2 +1 x24 +1 x30 +1 x40 +1 x68 +1 x87 +1 x91 +1 x93 +1 x110 +1 x115 +1 x116 +1 x124 +1 x129 +1 x133
  >= +1
 c50: +1 x4 +1 x10 +1 x15 +1 x28 +1 x53 +1 x66 +1 x74 +1 x76 +1 x99 +1 x107 +1 x110 +1 x121 +1 x136 +1 x141
  +1 x142 >= +1
 c51: +1 x0 +1 x20 +1 x30 +1 x32 +1 x34 +1 x38 +1 x42 +1 x54 +1 x56 +1 x57 +1 x71 +1 x83 +1 x101 +1 x104
  +1 x110 +1 x115 +1 x116 +1 x128 +1 x142 +1 x147 >= +1
 c52: +1 x1 +1 x12 +1 x14 +1 x17 +1 x44 +1 x60 +1 x69 +1 x88 +1 x96 +1 x105 +1 x107 +1 x113 +1 x115 +1 x129
  +1 x132 +1 x139 +1 x143 >= +1
 c53: +1 x8 +1 x11 +1 x19 +1 x50 +1 x54 +1 x64 +1 x67 +1 x71 +1 x86 +1 x142 +1 x145 +1 x148 >= +1
 c54: +1 x3 +1 x19 +1 x21 +1 x38 +1 x39 +1 x52 +1 x74 +1 x81 +1 x86 +1 x87 +1 x99 +1 x108 +1 x118 +1 x131
  +1 x140 +1 x144 +1 x146 >= +1
 c55: +1 x7 +1 x50 +1 x68 +1 x82 +1 x83 +1 x125 +1 x146 >= +1
 c56: +1 x1 +1 x22 +1 x28 +1 x32 +1 x55 +1 x62 +1 x63 +1 x80 +1 x83 +1 x87 +1 x88 +1 x98 +1 x117 +1 x129
  +1 x130 +1 x140 +1 x141 +1 x146 >= +1
 c57: +1 x1 +1 x21 +1 x23 +1 x28 +1 x40 +1 x56 +1 x82 +1 x107 +1 x125 +1 x132 +1 x142 >= +1
 c58: +1 x8 +1 x24 +1 x47 +1 x60 +1 x98 +1 x107 +1 x111 +1 x114 +1 x125 +1 x130 +1 x135 >= +1
 c59: +1 x1 +1 x24 +1 x28 +1 x53 +1 x81 +1 x88 +1 x97 +1 x101 +1 x102 +1 x103 +1 x105 +1 x128 +1 x146
  >= +1
 c60: +1 x9 +1 x11 +1 x19 +1 x27 +1 x61 +1 x63 +1 x80 +1 x100 +1 x112 +1 x116 +1 x131 +1 x135 +1 x137
  +1 x143 >= +1
 c61: +1 x1 +1 x10 +1 x30 +1 x37 +1 x45 +1 x53 +1 x82 +1 x87 +1 x88 +1 x95 +1 x101 +1 x111 +1 x112 >= +1
 c62: +1 x5 +1 x16 +1 x30 +1 x54 +1 x66 +1 x69 +1 x74 +1 x97 +1 x107 +1 x130 +1 x139 +1 x147 >= +1
 c63: +1 x8 +1 x21 +1 x36 +1 x51 +1 x63 +1 x94 +1 x95 +1 x97 +1 x113 +1 x114 +1 x116 +1 x127 +1 x129 +1 x140
  +1 x145 +1 x147 >= +1
 c64: +1 x6 +1 x19 +1 x25 +1 x39 +1 x49 +1 x53 +1 x66 +1 x80 +1 x85 +1 x100 +1 x117 +1 x122 +1 x145 >= +1
 c65: +1 x6 +1 x32 +1 x34 +1 x36 +1 x48 +1 x50 +1 x57 +1 x60 +1 x65 +1 x76 +1 x80 +1 x85 +1 x91 +1 x117
  +1 x124 +1 x128 +1 x136 >= +1
 c66: +1 x4 +1 x10 +1 x15 +1 x31 +1 x43 +1 x69 +1 x71 +1 x80 +1 x94 +1 x102 +1 x106 +1 x114 >= +1
 c67: +1 x5 +1 x22 +1 x24 +1 x26 +1 x28 +1 x33 +1 x58 +1 x61 +1 x65 +1 x69 +1 x88 +1 x97 +1 x102 +1 x105
  +1 x114 +1 x136 +1 x137 +1 x148 >= +1
 c68: +1 x2 +1 x31 +1 x33 +1 x44 +1 x48 +1 x71 +1 x103 +1 x106 +1 x108 +1 x110 +1 x112 +1 x115 +1 x120
  +1 x127 +1 x128 +1 x136 +1 x142 +1 x145 >= +1
 c69: +1 x6 +1 x10 +1 x13 +1 x15 +1 x19 +1 x38 +1 x39 +1 x63 +1 x80 +1 x101 +1 x109 +1 x112 +1 x114 +1 x115
  >= +1
 c70: +1 x7 +1 x17 +1 x22 +1 x43 +1 x49 +1 x50 +1 x52 +1 x54 +1 x61 +1 x64 +1 x72 +1 x133 >= +1
 c71: +1 x2 +1 x11 +1 x18 +1 x22 +1 x27 +1 x62 +1 x73 +1 x74 +1 x87 +1 x90 +1 x111 +1 x114 +1 x122 +1 x125
  +1 x131 +1 x146 >= +1
 c72: +1 x3 +1 x10 +1 x13 +1 x15 +1 x16 +1 x20 +1 x57 +1 x60 +1 x62 +1 x73 +1 x84 +1 x119 +1 x140 +1 x143
  +1 x148 >= +1
 c73: +1 x0 +1 x39 +1 x42 +1 x47 +1 x50 +1 x93 +1 x94 +1 x105 +1 x108 +1 x109 +1 x110 +1 x112 +1 x124
  +1 x126 +1 x130 +1 x137 >= +1
 c74: +1 x4 +1 x24 +1 x37 +1 x56 +1 x79 +1 x89 +1 x91 +1 x135 +1 x148 >= +1
 c75: +1 x3 +1 x37 +1 x43 +1 x44 +1 x57 +1 x65 +1 x74 +1 x77 +1 x85 +1 x92 +1 x99 +1 x107 +1 x141 >= +1
 c76: +1 x8 +1 x22 +1 x25 +1 x30 +1 x38 +1 x49 +1 x77 +1 x102 +1 x105 +1 x120 +1 x121 +1 x146 >= +1
 c77: +1 x3 +1 x10 +1 x34 +1 x42 +1 x47 +1 x48 +1 x49 +1 x60 +1 x75 +1 x112 +1 x121 +1 x136 +1 x139 >= +1
 c78: +1 x3 +1 x14 +1 x18 +1 x33 +1 x42 +1 x49 +1 x65 +1 x69 +1 x75 +1 x84 +1 x85 +1 x96 +1 x102 +1 x123
  >= +1
 c79: +1 x0 +1 x10 +1 x11 +1 x20 +1 x23 +1 x60 +1 x71 +1 x86 +1 x96 +1 x120 +1 x128 +1 x132 +1 x144 +1 x148
  >= +1
 c80: +1 x1 +1 x10 +1 x14 +1 x19 +1 x23 +1 x30 +1 x38 +1 x40 +1 x56 +1 x79 +1 x124 +1 x126 +1 x136 +1 x139
  >= +1
 c81: +1 x1 +1 x12 +1 x14 +1 x15 +1 x34 +1 x45 +1 x48 +1 x63 +1 x84 +1 x86 +1 x104 +1 x129 +1 x134 +1 x135
  >= +1
 c82: +1 x4 +1 x14 +1 x16 +1 x17 +1 x55 +1 x82 +1 x84 +1 x101 +1 x113 +1 x114 +1 x140 >= +1
 c83: +1 x7 +1 x30 +1 x44 +1 x58 +1 x60 +1 x73 +1 x83 +1 x123 >= +1
 c84: +1 x4 +1 x51 +1 x53 +1 x59 +1 x71 +1 x76 +1 x88 +1 x90 +1 x95 +1 x101 +1 x111 +1 x115 +1 x119 +1 x122
  +1 x123 +1 x138 +1 x142 >= +1
 c85: +1 x0 +1 x13 +1 x19 +1 x27 +1 x31 +1 x38 +1 x52 +1 x53 +1 x63 +1 x93 +1 x98 +1 x115 +1 x117 +1 x127
  +1 x136 >= +1
 c86: +1 x0 +1 x17 +1 x23 +1 x27 +1 x38 +1 x42 +1 x53 +1 x54 +1 x58 +1 x66 +1 x100 +1 x112 +1 x113 +1 x118
  +1 x119 +1 x130 +1 x149 >= +1
 c87: +1 x4 +1 x15 +1 x23 +1 x31 +1 x32 +1 x33 +1 x35 +1 x59 +1 x65 +1 x66 +1 x70 +1 x75 +1 x91 +1 x118
  +1 x120 +1 x131 >= +1
 c88: +1 x8 +1 x11 +1 x31 +1 x41 +1 x57 +1 x66 +1 x73 +1 x80 +1 x86 +1 x92 +1 x102 +1 x109 +1 x111 +1 x122
  +1 x125 >= +1
 c89: +1 x9 +1 x16 +1 x21 +1 x30 +1 x31 +1 x50 +1 x62 +1 x63 +1 x71 +1 x77 +1 x128 +1 x131 >= +1
 c90: +1 x1 +1 x15 +1 x16 +1 x22 +1 x23 +1 x32 +1 x43 +1 x46 +1 x52 +1 x56 +1 x69 +1 x88 +1 x99 +1 x116
  +1 x128 +1 x145 >= +1
 c91: +1 x0 +1 x9 +1 x30 +1 x76 +1 x82 +1 x96 +1 x109 +1 x111 +1 x132 +1 x143 +1 x148 >= +1
 c92: +1 x4 +1 x14 +1 x25 +1 x35 +1 x42 +1 x49 +1 x50 +1 x76 +1 x78 +1 x85 +1 x97 +1 x109 +1 x110 +1 x111
  +1 x113 +1 x118 +1 x120 +1 x128 >= +1
 c93: +1 x1 +1 x17 +1 x18 +1 x21 +1 x22 +1 x28 +1 x36 +1 x43 +1 x44 +1 x48 +1 x52 +1 x60 +1 x80 +1 x84
  +1 x88 +1 x98 +1 x101 +1 x104 +1 x112 +1 x121 +1 x130 +1 x146 +1 x147 >= +1
 c94: +1 x5 +1 x40 +1 x41 +1 x44 +1 x46 +1 x47 +1 x50 +1 x51 +1 x60 +1 x88 +1 x96 +1 x108 +1 x128 +1 x130
  +1 x137 >= +1
 c95: +1 x6 +1 x14 +1 x40 +1 x47 +1 x54 +1 x87 +1 x89 +1 x92 +1 x96 +1 x99 +1 x113 +1 x135 +1 x136 +1 x137
  +1 x144 >= +1
 c96: +1 x8 +1 x14 +1 x17 +1 x24 +1 x38 +1 x41 +1 x60 +1 x67 +1 x74 +1 x78 +1 x81 +1 x83 +1 x87 +1 x88
  +1 x111 +1 x113 +1 x118 +1 x127 +1 x129 +1 x133 +1 x138 >= +1
 c97: +1 x7 +1 x11 +1 x13 +1 x19 +1 x25 +1 x29 +1 x38 +1 x49 +1 x51 +1 x81 +1 x88 +1 x97 +1 x102 +1 x114
  +1 x132 >= +1
 c98: +1 x8 +1 x19 +1 x44 +1 x50 +1 x55 +1 x60 +1 x65 +1 x74 +1 x89 +1 x93 +1 x101 +1 x119 +1 x130 +1 x136
  +1 x141 +1 x147 +1 x148 >= +1
 c99: +1 x0 +1 x27 +1 x35 +1 x38 +1 x42 +1 x44 +1 x96 +1 x97 +1 x116 +1 x117 +1 x129 +1 x143 +1 x146 +1 x149
  >= +1
Bounds
 0 <= x0 <= 1
 0 <= x1 <= 1
 0 <= x2 <= 1
 0 <= x3 <= 1
 0 <= x4 <= 1
 0 <= x5 <= 1
 0 <= x6 <= 1
 0 <= x7 <= 1
 0 <= x8 <= 1
 0 <= x9 <= 1
 0 <= x10 <= 1
 0 <= x11 <= 1
 0 <= x12 <= 1
 0 <= x13 <= 1
 0 <= x14 <= 1
 0 <= x15 <= 1
 0 <= x16 <= 1
 0 <= x17 <= 1
 0 <= x18 <= 1
 0 <= x19 <= 1
 0 <= x20 <= 1
 0 <= x21 <= 1
 0 <= x22 <= 1
 0 <= x23 <= 1
 0 <= x24 <= 1
 0 <= x25 <= 1
 0 <= x26 <= 1
 0 <= x27 <= 1
 0 <= x28 <= 1
 0 <= x29 <= 1
 0 <= x30 <= 1
 0 <= x31 <= 1
 0 <= x32 <= 1
 0 <= x33 <= 1
 0 <= x34 <= 1
 0 <= x35 <= 1
 0 <= x36 <= 1
 0 <= x37 <= 1
 0 <= x38 <= 1
 0 <= x39 <= 1
 0 <= x40 <= 1
 0 <= x41 <= 1
 0 <= x42 <= 1
 0 <= x43 <= 1
 0 <= x44 <= 1
 0 <= x45 <= 1
 0 <= x46 <= 1
 0 <= x47 <= 1
 0 <= x48 <= 1
 0 <= x49 <= 1
 0 <= x50 <= 1
 0 <= x51 <= 1
 0 <= x52 <= 1
 0 <= x53 <= 1
 0 <= x54 <= 1
 0 <= x55 <= 1
 0 <= x56 <= 1
 0 <= x57 <= 1
 0 <= x58 <= 1
 0 <= x59 <= 1
 0 <= x60 <= 1
 0 <= x61 <= 1
 0 <= x62 <= 1
 0 <= x63 <= 1
 0 <= x64 <= 1
 0 <= x65 <= 1
 0 <= x66 <= 1
 0 <= x67 <= 1
 0 <= x68 <= 1
 0 <= x69 <= 1
 0 <= x70 <= 1
 0 <= x71 <= 1
 0 <= x72 <= 1
 0 <= x73 <= 1
 0 <= x74 <= 1
 0 <= x75 <= 1
 0 <= x76 <= 1
 0 <= x77 <= 1
 0 <= x78 <= 1
 0 <= x79 <= 1
 0 <= x80 <= 1
 0 <= x81 <= 1
 0 <= x82 <= 1
 0 <= x83 <= 1
 0 <= x84 <= 1
 0 <= x85 <= 1
 0 <= x86 <= 1
 0 <= x87 <= 1
 0 <= x88 <= 1
 0 <= x89 <= 1
 0 <= x90 <= 1
 0 <= x91 <= 1
 0 <= x92 <= 1
 0 <= x93 <= 1
 0 <= x94 <= 1
 0 <= x95 <= 1
 0 <= x96 <= 1
 0 <= x97 <= 1
 0 <= x98 <= 1
 0 <= x99 <= 1
 0 <= x100 <= 1
 0 <= x101 <= 1
 0 <= x102 <= 1
 0 <= x103 <= 1
 0 <= x104 <= 1
 0 <= x105 <= 1
 0 <= x106 <= 1
 0 <= x107 <= 1
 0 <= x108 <= 1
 0 <= x109 <= 1
 0 <= x110 <= 1
 0 <= x111 <= 1
 0 <= x112 <= 1
 0 <= x113 <= 1
 0 <= x114 <= 1
 0 <= x115 <= 1
 0 <= x116 <= 1
 0 <= x117 <= 1
 0 <= x118 <= 1
 0 <= x119 <= 1
 0 <= x120 <= 1
 0 <= x121 <= 1
 0 <= x122 <= 1
 0 <= x123 <= 1
 0 <= x124 <= 1
 0 <= x125 <= 1
 0 <= x126 <= 1
 0 <= x127 <= 1
 0 <= x128 <= 1
 0 <= x129 <= 1
 0 <= x130 <= 1
 0 <= x131 <= 1
 0 <= x132 <= 1
 0 <= x133 <= 1
 0 <= x134 <= 1
 0 <= x135 <= 1
 0 <= x136 <= 1
 0 <= x137 <= 1
 0 <= x138 <= 1
 0 <= x139 <= 1
 0 <= x140 <= 1
 0 <= x141 <= 1
 0 <= x142 <= 1
 0 <= x143 <= 1
 0 <= x144 <= 1
 0 <= x145 <= 1
 0 <= x146 <= 1
 0 <= x147 <= 1
 0 <= x148 <= 1
 0 <= x149 <= 1
Binaries
 x0 x1 x2 x3 x4 x5 x6 x7 x8 x9 x10 x11 x12 x13 x14 x15 x16 x17 x18 x19 x20 x21 x22 x23 x24 x25 x26 x27
 x28 x29 x30 x31 x32 x33 x34 x35 x36 x37 x38 x39 x40 x41 x42 x43 x44 x45 x46 x47 x48 x49 x50 x51 x52 x53
 x54 x55 x56 x57 x58 x59 x60 x61 x62 x63 x64 x65 x66 x67 x68 x69 x70 x71 x72 x73 x74 x75 x76 x77 x78 x79
 x80 x81 x82 x83 x84 x85 x86 x87 x88 x89 x90 x91 x92 x93 x94 x95 x96 x97 x98 x99 x100 x101 x102 x103 x104
 x105 x106 x107 x108 x109 x110 x111 x112 x113 x114 x115 x116 x117 x118 x119 x120 x121 x122 x123 x124 x125
 x126 x127 x128 x129 x130 x131 x132 x133 x134 x135 x136 x137 x138 x139 x140 x141 x142 x143 x144 x145 x146
 x147 x148 x149
End
